(set-info :min-time 27.838962037)
; Start decls (23)
(declare-fun b10 () (_ FloatingPoint 8 24))
(declare-fun b11 () (_ FloatingPoint 8 24))
(declare-fun b119 () (_ FloatingPoint 8 24))
(declare-fun b14 () (_ FloatingPoint 8 24))
(declare-fun b17 () (_ FloatingPoint 8 24))
(declare-fun b20 () (_ FloatingPoint 8 24))
(declare-fun b23 () (_ FloatingPoint 8 24))
(declare-fun b26 () (_ FloatingPoint 8 24))
(declare-fun b29 () (_ FloatingPoint 8 24))
(declare-fun b32 () (_ FloatingPoint 8 24))
(declare-fun b35 () (_ FloatingPoint 8 24))
(declare-fun b38 () (_ FloatingPoint 8 24))
(declare-fun b41 () (_ FloatingPoint 8 24))
(declare-fun b44 () (_ FloatingPoint 8 24))
(declare-fun b47 () (_ FloatingPoint 8 24))
(declare-fun b50 () (_ FloatingPoint 8 24))
(declare-fun b53 () (_ FloatingPoint 8 24))
(declare-fun b56 () (_ FloatingPoint 8 24))
(declare-fun b59 () (_ FloatingPoint 8 24))
(declare-fun b62 () (_ FloatingPoint 8 24))
(declare-fun b65 () (_ FloatingPoint 8 24))
(declare-fun b68 () (_ FloatingPoint 8 24))
(declare-fun b71 () (_ FloatingPoint 8 24))
; End decls
; Start constraints (41)
(assert (fp.lt b11 b119))
(assert (let ((a!1 (fp.div roundNearestTiesToEven
                   (fp.div roundNearestTiesToEven
                           (fp.div roundNearestTiesToEven
                                   (fp.div roundNearestTiesToEven b10 b11)
                                   b14)
                           b17)
                   b20)))
(let ((a!2 (fp.div roundNearestTiesToEven
                   (fp.div roundNearestTiesToEven
                           (fp.div roundNearestTiesToEven
                                   (fp.div roundNearestTiesToEven a!1 b23)
                                   b26)
                           b29)
                   b32)))
(let ((a!3 (fp.div roundNearestTiesToEven
                   (fp.div roundNearestTiesToEven
                           (fp.div roundNearestTiesToEven
                                   (fp.div roundNearestTiesToEven a!2 b35)
                                   b38)
                           b41)
                   b44)))
(let ((a!4 (fp.div roundNearestTiesToEven
                   (fp.div roundNearestTiesToEven
                           (fp.div roundNearestTiesToEven
                                   (fp.div roundNearestTiesToEven a!3 b47)
                                   b50)
                           b53)
                   b56)))
(let ((a!5 (fp.div roundNearestTiesToEven
                   (fp.div roundNearestTiesToEven
                           (fp.div roundNearestTiesToEven
                                   (fp.div roundNearestTiesToEven a!4 b59)
                                   b62)
                           b65)
                   b68)))
  (fp.lt a!5 b71)))))))
(assert (fp.leq b71 b11))
(assert (fp.lt b14 b119))
(assert (fp.leq b71 b14))
(assert (fp.lt b17 b119))
(assert (fp.leq b71 b17))
(assert (fp.lt b20 b119))
(assert (fp.leq b71 b20))
(assert (fp.lt b23 b119))
(assert (fp.leq b71 b23))
(assert (fp.lt b26 b119))
(assert (fp.leq b71 b26))
(assert (fp.lt b29 b119))
(assert (fp.leq b71 b29))
(assert (fp.lt b32 b119))
(assert (fp.leq b71 b32))
(assert (fp.lt b35 b119))
(assert (fp.leq b71 b35))
(assert (fp.lt b38 b119))
(assert (fp.leq b71 b38))
(assert (fp.lt b41 b119))
(assert (fp.leq b71 b41))
(assert (fp.lt b44 b119))
(assert (fp.leq b71 b44))
(assert (fp.lt b47 b119))
(assert (fp.leq b71 b47))
(assert (fp.lt b50 b119))
(assert (fp.leq b71 b50))
(assert (fp.lt b53 b119))
(assert (fp.leq b71 b53))
(assert (fp.lt b56 b119))
(assert (fp.leq b71 b56))
(assert (fp.lt b59 b119))
(assert (fp.leq b71 b59))
(assert (fp.lt b62 b119))
(assert (fp.leq b71 b62))
(assert (fp.lt b65 b119))
(assert (fp.leq b71 b65))
(assert (fp.lt b68 b119))
(assert (fp.leq b71 b68))
; End constraints
(check-sat)
